
  32    4
  10   10   10   10

   0   0   0   0   0  16 2 3 4 5 6 7 8 9 10 12 16 17 28 29 30 31 
   4   0   1   1   1   6 23 22 15 14 13 11 
   7   1   6   0   6   5 23 22 20 18 13 
   6   3   0   5   3   4 21 20 19 18 
   7   6   2   4   0   4 24 23 22 18 
   8   0   2   6   6   3 27 23 20 
   9   2   3   3   0   3 26 21 19 
   4   0   5   5   6   3 23 22 20 
   9   7   7   4   0   2 18 14 
  10   4   4   2   0   2 18 13 
   2   6   5   2   0   2 20 18 
   4   5   0   5   4   2 25 19 
   1   4   0   6   2   1 19 
  10   2   2   0   3   1 21 
   9   0   4   2   4   1 24 
   2   4   3   0   3   1 22 
   5   2   0   3   6   1 21 
   6   0   4   3   4   1 32
   6   5   6   3   0   1 32
   4   6   6   0   1   1 32
   4   6   4   0   5   1 32
   4   4   3   6   0   1 32
   9   0   5   4   8   1 32
   5   5   0   4   5   1 32
   8   3   4   0   3   1 32
   9   0   5   1   2   1 32
   3   3   2   6   0   1 32
   1   0   4   5   2   1 32
  10   2   0   6   5   1 32
   4   2   6   0   5   1 32
  10   6   3   6   0   1 32
   0   0   0   0   0   0 
